12
13
18
6
12
15
12
13
14
13
11
9
13
9
1
10
11
11
15
16
5
10
14
20
11
14
17
13
7
16
17
7
4
13
11
14
10
10
1
11
9
18
6
9
13
16
9
8
15
13
17
13
10
13
14
17
6
15
7
13
6
6
9
10
14
12
12
7
13
9
6
13
3
4
9
15
12
10
17
13
18
12
4
6
15
8
12
6
15
13
7
16
15
17
7
11
19
9
12
12
